X Y
40.0 50.0
42.0 30.0
44.0 25.0
45.0 35.0
48.0 30.0
47.0 35.0
35.0 32.0
50.0 30.0
33.0 32.0
34.0 25.0
50.0 35.0
33.0 35.0
53.0 30.0
47.0 40.0
36.0 40.0
48.0 20.0
30.0 30.0
53.0 35.0
50.0 40.0
30.0 35.0
36.0 18.0
32.0 20.0
42.0 15.0
38.0 15.0
26.0 32.0
25.0 30.0
25.0 35.0
42.0 10.0
38.0 10.0
62.0 40.0
30.0 50.0
44.0 5.0
40.0 5.0
38.0 5.0
35.0 5.0
